(set-logic UF)
(declare-sort S1 0)
(declare-sort S2 0)
(declare-sort S3 0)
(declare-sort S4 0)
(declare-sort S5 0)
(declare-sort S6 0)
(declare-sort S7 0)
(declare-sort S8 0)
(declare-sort S9 0)
(declare-sort S10 0)
(declare-sort S11 0)
(declare-sort S12 0)
(declare-sort S13 0)
(declare-sort S14 0)
(declare-sort S15 0)
(declare-sort S16 0)
(declare-sort S17 0)
(declare-sort S18 0)
(declare-sort S19 0)
(declare-sort S20 0)
(declare-sort S21 0)
(declare-sort S22 0)
(declare-sort S23 0)
(declare-sort S24 0)
(declare-sort S25 0)
(declare-sort S26 0)
(declare-sort S27 0)
(declare-sort S28 0)
(declare-sort S29 0)
(declare-sort S30 0)
(declare-sort S31 0)
(declare-sort S32 0)
(declare-sort S33 0)
(declare-sort S34 0)
(declare-sort S35 0)
(declare-sort S36 0)
(declare-sort S37 0)
(declare-sort S38 0)
(declare-sort S39 0)
(declare-sort S40 0)
(declare-sort S41 0)
(declare-sort S42 0)
(declare-sort S43 0)
(declare-sort S44 0)
(declare-sort S45 0)
(declare-sort S46 0)
(declare-sort S47 0)
(declare-sort S48 0)
(declare-sort S49 0)
(declare-sort S50 0)
(declare-sort S51 0)
(declare-sort S52 0)
(declare-sort S53 0)
(declare-sort S54 0)
(declare-sort S55 0)
(declare-sort S56 0)
(declare-sort S57 0)
(declare-sort S58 0)
(declare-sort S59 0)
(declare-sort S60 0)
(declare-sort S61 0)
(declare-sort S62 0)
(declare-sort S63 0)
(declare-sort S64 0)
(declare-sort S65 0)
(declare-sort S66 0)
(declare-sort S67 0)
(declare-sort S68 0)
(declare-sort S69 0)
(declare-sort S70 0)
(declare-sort S71 0)
(declare-sort S72 0)
(declare-sort S73 0)
(declare-sort S74 0)
(declare-sort S75 0)
(declare-sort S76 0)
(declare-sort S77 0)
(declare-sort S78 0)
(declare-sort S79 0)
(declare-sort S80 0)
(declare-sort S81 0)
(declare-sort S82 0)
(declare-sort S83 0)
(declare-sort S84 0)
(declare-sort S85 0)
(declare-sort S86 0)
(declare-sort S87 0)
(declare-sort S88 0)
(declare-sort S89 0)
(declare-sort S90 0)
(declare-sort S91 0)
(declare-sort S92 0)
(declare-sort S93 0)
(declare-sort S94 0)
(declare-sort S95 0)
(declare-sort S96 0)
(declare-sort S97 0)
(declare-sort S98 0)
(declare-sort S99 0)
(declare-sort S100 0)
(declare-sort S101 0)
(declare-sort S102 0)
(declare-sort S103 0)
(declare-sort S104 0)
(declare-sort S105 0)
(declare-sort S106 0)
(declare-sort S107 0)
(declare-sort S108 0)
(declare-sort S109 0)
(declare-sort S110 0)
(declare-sort S111 0)
(declare-sort S112 0)
(declare-sort S113 0)
(declare-sort S114 0)
(declare-sort S115 0)
(declare-sort S116 0)
(declare-sort S117 0)
(declare-sort S118 0)
(declare-sort S119 0)
(declare-sort S120 0)
(declare-sort S121 0)
(declare-sort S122 0)
(declare-sort S123 0)
(declare-sort S124 0)
(declare-sort S125 0)
(declare-sort S126 0)
(declare-sort S127 0)
(declare-sort S128 0)
(declare-sort S129 0)
(declare-sort S130 0)
(declare-sort S131 0)
(declare-sort S132 0)
(declare-sort S133 0)
(declare-sort S134 0)
(declare-sort S135 0)
(declare-sort S136 0)
(declare-sort S137 0)
(declare-sort S138 0)
(declare-sort S139 0)
(declare-sort S140 0)
(declare-sort S141 0)
(declare-sort S142 0)
(declare-sort S143 0)
(declare-sort S144 0)
(declare-sort S145 0)
(declare-sort S146 0)
(declare-sort S147 0)
(declare-sort S148 0)
(declare-sort S149 0)
(declare-sort S150 0)
(declare-sort S151 0)
(declare-sort S152 0)
(declare-sort S153 0)
(declare-sort S154 0)
(declare-sort S155 0)
(declare-sort S156 0)
(declare-sort S157 0)
(declare-sort S158 0)
(declare-sort S159 0)
(declare-sort S160 0)
(declare-sort S161 0)
(declare-sort S162 0)
(declare-sort S163 0)
(declare-sort S164 0)
(declare-sort S165 0)
(declare-sort S166 0)
(declare-sort S167 0)
(declare-sort S168 0)
(declare-sort S169 0)
(declare-sort S170 0)
(declare-sort S171 0)
(declare-sort S172 0)
(declare-sort S173 0)
(declare-sort S174 0)
(declare-sort S175 0)
(declare-sort S176 0)
(declare-sort S177 0)
(declare-sort S178 0)
(declare-sort S179 0)
(declare-sort S180 0)
(declare-sort S181 0)
(declare-sort S182 0)
(declare-sort S183 0)
(declare-sort S184 0)
(declare-sort S185 0)
(declare-sort S186 0)
(declare-sort S187 0)
(declare-sort S188 0)
(declare-sort S189 0)
(declare-sort S190 0)
(declare-sort S191 0)
(declare-sort S192 0)
(declare-sort S193 0)
(declare-sort S194 0)
(declare-sort S195 0)
(declare-sort S196 0)
(declare-sort S197 0)
(declare-sort S198 0)
(declare-sort S199 0)
(declare-sort S200 0)
(declare-sort S201 0)
(declare-sort S202 0)
(declare-sort S203 0)
(declare-sort S204 0)
(declare-sort S205 0)
(declare-sort S206 0)
(declare-sort S207 0)
(declare-sort S208 0)
(declare-sort S209 0)
(declare-sort S210 0)
(declare-sort S211 0)
(declare-sort S212 0)
(declare-sort S213 0)
(declare-sort S214 0)
(declare-sort S215 0)
(declare-sort S216 0)
(declare-sort S217 0)
(declare-fun f1 () S1)
(declare-fun f2 () S1)
(declare-fun f3 (S3 S2) S4)
(declare-fun f4 () S3)
(declare-fun f5 (S5 S6) S1)
(declare-fun f6 (S7 S6) S5)
(declare-fun f7 () S7)
(declare-fun f8 (S8 S2) S6)
(declare-fun f9 () S8)
(declare-fun f10 () S6)
(declare-fun f11 () S4)
(declare-fun f12 () S4)
(declare-fun f13 (S9 S6) S3)
(declare-fun f14 () S9)
(declare-fun f15 (S11 S10) S1)
(declare-fun f16 (S12 S10) S11)
(declare-fun f17 (S13 S4) S12)
(declare-fun f18 () S13)
(declare-fun f19 (S14 S4) S1)
(declare-fun f20 (S15 S16) S14)
(declare-fun f21 () S15)
(declare-fun f22 (S17 S10) S16)
(declare-fun f23 (S18 S10) S17)
(declare-fun f24 () S18)
(declare-fun f25 (S20 S16) S19)
(declare-fun f26 (S21 S19) S20)
(declare-fun f27 () S21)
(declare-fun f28 (S22 S6) S19)
(declare-fun f29 (S23 S19) S22)
(declare-fun f30 () S23)
(declare-fun f31 (S24 S3) S19)
(declare-fun f32 (S25 S19) S24)
(declare-fun f33 () S25)
(declare-fun f34 (S26 S4) S19)
(declare-fun f35 (S27 S19) S26)
(declare-fun f36 () S27)
(declare-fun f37 (S29 S28) S19)
(declare-fun f38 (S30 S19) S29)
(declare-fun f39 () S30)
(declare-fun f40 (S31 S4) S3)
(declare-fun f41 () S31)
(declare-fun f42 (S32 S1) S4)
(declare-fun f43 (S33 S4) S32)
(declare-fun f44 () S33)
(declare-fun f45 (S35 S16) S34)
(declare-fun f46 (S36 S34) S35)
(declare-fun f47 () S36)
(declare-fun f48 (S37 S6) S34)
(declare-fun f49 (S38 S34) S37)
(declare-fun f50 () S38)
(declare-fun f51 (S39 S3) S34)
(declare-fun f52 (S40 S34) S39)
(declare-fun f53 () S40)
(declare-fun f54 (S41 S4) S34)
(declare-fun f55 (S42 S34) S41)
(declare-fun f56 () S42)
(declare-fun f57 (S43 S28) S34)
(declare-fun f58 (S44 S34) S43)
(declare-fun f59 () S44)
(declare-fun f60 (S45 S2) S5)
(declare-fun f61 (S46 S5) S45)
(declare-fun f62 () S46)
(declare-fun f63 (S47 S1) S5)
(declare-fun f64 (S48 S5) S47)
(declare-fun f65 () S48)
(declare-fun f66 (S50 S2) S49)
(declare-fun f67 (S51 S49) S50)
(declare-fun f68 () S51)
(declare-fun f69 (S52 S1) S49)
(declare-fun f70 (S53 S49) S52)
(declare-fun f71 () S53)
(declare-fun f72 (S54 S2) S14)
(declare-fun f73 (S55 S14) S54)
(declare-fun f74 () S55)
(declare-fun f75 (S56 S1) S14)
(declare-fun f76 (S57 S14) S56)
(declare-fun f77 () S57)
(declare-fun f78 (S58 S3) S14)
(declare-fun f79 (S59 S14) S58)
(declare-fun f80 () S59)
(declare-fun f81 (S61 S2) S60)
(declare-fun f82 (S62 S60) S61)
(declare-fun f83 () S62)
(declare-fun f84 (S63 S1) S60)
(declare-fun f85 (S64 S60) S63)
(declare-fun f86 () S64)
(declare-fun f87 () S3)
(declare-fun f88 () S3)
(declare-fun f89 () S54)
(declare-fun f90 () S14)
(declare-fun f91 () S58)
(declare-fun f92 () S54)
(declare-fun f93 () S14)
(declare-fun f94 () S35)
(declare-fun f95 () S34)
(declare-fun f96 () S58)
(declare-fun f97 (S19 S2) S1)
(declare-fun f98 () S19)
(declare-fun f99 (S4 S16) S1)
(declare-fun f100 () S4)
(declare-fun f101 () S5)
(declare-fun f102 (S49 S3) S1)
(declare-fun f103 () S49)
(declare-fun f104 () S14)
(declare-fun f105 (S60 S28) S1)
(declare-fun f106 () S60)
(declare-fun f107 (S65 S14) S1)
(declare-fun f108 (S66 S4) S65)
(declare-fun f109 () S66)
(declare-fun f110 (S28 S3) S4)
(declare-fun f111 () S28)
(declare-fun f112 (S67 S60) S1)
(declare-fun f113 (S68 S28) S67)
(declare-fun f114 () S68)
(declare-fun f115 (S69 S58) S60)
(declare-fun f116 (S70 S49) S69)
(declare-fun f117 () S70)
(declare-fun f118 () S49)
(declare-fun f119 () S60)
(declare-fun f120 () S60)
(declare-fun f121 (S71 S49) S1)
(declare-fun f122 (S72 S3) S71)
(declare-fun f123 () S72)
(declare-fun f124 (S73 S10) S4)
(declare-fun f125 (S74 S10) S73)
(declare-fun f126 (S75 S4) S74)
(declare-fun f127 () S75)
(declare-fun f128 () S75)
(declare-fun f129 (S76 S4) S73)
(declare-fun f130 () S76)
(declare-fun f131 () S76)
(declare-fun f132 () S29)
(declare-fun f133 () S10)
(declare-fun f134 () S10)
(declare-fun f135 (S77 S35) S14)
(declare-fun f136 (S78 S4) S77)
(declare-fun f137 () S78)
(declare-fun f138 (S79 S34) S1)
(declare-fun f139 (S80 S1) S79)
(declare-fun f140 () S80)
(declare-fun f141 (S81 S82) S1)
(declare-fun f142 (S83 S32) S81)
(declare-fun f143 () S83)
(declare-fun f144 (S84 S56) S82)
(declare-fun f145 (S85 S34) S84)
(declare-fun f146 () S85)
(declare-fun f147 (S87 S88) S1)
(declare-fun f148 (S89 S86) S87)
(declare-fun f149 () S89)
(declare-fun f150 (S90 S61) S88)
(declare-fun f151 (S91 S19) S90)
(declare-fun f152 () S91)
(declare-fun f153 (S86 S2) S28)
(declare-fun f154 (S92 S19) S1)
(declare-fun f155 (S93 S2) S92)
(declare-fun f156 () S93)
(declare-fun f157 (S95 S96) S1)
(declare-fun f158 (S97 S94) S95)
(declare-fun f159 () S97)
(declare-fun f160 (S98 S63) S96)
(declare-fun f161 (S99 S34) S98)
(declare-fun f162 () S99)
(declare-fun f163 (S94 S1) S28)
(declare-fun f164 (S101 S102) S1)
(declare-fun f165 (S103 S100) S101)
(declare-fun f166 () S103)
(declare-fun f167 (S104 S50) S102)
(declare-fun f168 (S105 S19) S104)
(declare-fun f169 () S105)
(declare-fun f170 (S100 S2) S3)
(declare-fun f171 (S107 S108) S1)
(declare-fun f172 (S109 S106) S107)
(declare-fun f173 () S109)
(declare-fun f174 (S110 S52) S108)
(declare-fun f175 (S111 S34) S110)
(declare-fun f176 () S111)
(declare-fun f177 (S106 S1) S3)
(declare-fun f178 (S113 S114) S1)
(declare-fun f179 (S115 S112) S113)
(declare-fun f180 () S115)
(declare-fun f181 (S116 S3) S114)
(declare-fun f182 (S117 S19) S116)
(declare-fun f183 () S117)
(declare-fun f184 (S112 S2) S16)
(declare-fun f185 (S119 S120) S1)
(declare-fun f186 (S121 S118) S119)
(declare-fun f187 () S121)
(declare-fun f188 (S122 S32) S120)
(declare-fun f189 (S123 S34) S122)
(declare-fun f190 () S123)
(declare-fun f191 (S118 S1) S16)
(declare-fun f192 (S124 S125) S1)
(declare-fun f193 (S126 S8) S124)
(declare-fun f194 () S126)
(declare-fun f195 (S127 S45) S125)
(declare-fun f196 (S128 S19) S127)
(declare-fun f197 () S128)
(declare-fun f198 (S129 S5) S1)
(declare-fun f199 (S130 S6) S129)
(declare-fun f200 () S130)
(declare-fun f201 (S132 S133) S1)
(declare-fun f202 (S134 S131) S132)
(declare-fun f203 () S134)
(declare-fun f204 (S135 S47) S133)
(declare-fun f205 (S136 S34) S135)
(declare-fun f206 () S136)
(declare-fun f207 (S131 S1) S6)
(declare-fun f208 (S138 S139) S1)
(declare-fun f209 (S140 S137) S138)
(declare-fun f210 () S140)
(declare-fun f211 (S141 S26) S139)
(declare-fun f212 (S142 S14) S141)
(declare-fun f213 () S142)
(declare-fun f214 (S137 S4) S2)
(declare-fun f215 (S143 S65) S1)
(declare-fun f216 (S144 S14) S143)
(declare-fun f217 () S144)
(declare-fun f218 (S145 S41) S65)
(declare-fun f219 (S146 S14) S145)
(declare-fun f220 () S146)
(declare-fun f221 (S148 S149) S1)
(declare-fun f222 (S150 S147) S148)
(declare-fun f223 () S150)
(declare-fun f224 (S151 S29) S149)
(declare-fun f225 (S152 S60) S151)
(declare-fun f226 () S152)
(declare-fun f227 (S147 S28) S2)
(declare-fun f228 (S153 S67) S1)
(declare-fun f229 (S154 S60) S153)
(declare-fun f230 () S154)
(declare-fun f231 (S155 S43) S67)
(declare-fun f232 (S156 S60) S155)
(declare-fun f233 () S156)
(declare-fun f234 (S158 S159) S1)
(declare-fun f235 (S160 S157) S158)
(declare-fun f236 () S160)
(declare-fun f237 (S161 S24) S159)
(declare-fun f238 (S162 S49) S161)
(declare-fun f239 () S162)
(declare-fun f240 (S157 S3) S2)
(declare-fun f241 (S163 S71) S1)
(declare-fun f242 (S164 S49) S163)
(declare-fun f243 () S164)
(declare-fun f244 (S165 S39) S71)
(declare-fun f245 (S166 S49) S165)
(declare-fun f246 () S166)
(declare-fun f247 (S168 S169) S1)
(declare-fun f248 (S170 S167) S168)
(declare-fun f249 () S170)
(declare-fun f250 (S171 S20) S169)
(declare-fun f251 (S172 S4) S171)
(declare-fun f252 () S172)
(declare-fun f253 (S167 S16) S2)
(declare-fun f254 (S174 S175) S1)
(declare-fun f255 (S176 S173) S174)
(declare-fun f256 () S176)
(declare-fun f257 (S177 S22) S175)
(declare-fun f258 (S178 S5) S177)
(declare-fun f259 () S178)
(declare-fun f260 (S173 S6) S2)
(declare-fun f261 (S179 S129) S1)
(declare-fun f262 (S180 S5) S179)
(declare-fun f263 () S180)
(declare-fun f264 (S181 S37) S129)
(declare-fun f265 (S182 S5) S181)
(declare-fun f266 () S182)
(declare-fun f267 (S183 S54) S49)
(declare-fun f268 (S184 S19) S183)
(declare-fun f269 () S184)
(declare-fun f270 (S185 S19) S6)
(declare-fun f271 () S185)
(declare-fun f272 () S19)
(declare-fun f273 (S186 S8) S92)
(declare-fun f274 () S186)
(declare-fun f275 () S60)
(declare-fun f276 () S49)
(declare-fun f277 () S4)
(declare-fun f278 () S5)
(declare-fun f279 () S1)
(declare-fun f280 (S187 S19) S92)
(declare-fun f281 () S187)
(declare-fun f282 (S188 S5) S129)
(declare-fun f283 () S188)
(declare-fun f284 (S34 S1) S1)
(declare-fun f285 (S189 S19) S19)
(declare-fun f286 () S189)
(declare-fun f287 (S190 S5) S5)
(declare-fun f288 () S190)
(declare-fun f289 (S191 S4) S4)
(declare-fun f290 () S191)
(declare-fun f291 (S192 S49) S49)
(declare-fun f292 () S192)
(declare-fun f293 (S193 S60) S60)
(declare-fun f294 () S193)
(declare-fun f295 (S194 S14) S14)
(declare-fun f296 () S194)
(declare-fun f297 (S195 S4) S14)
(declare-fun f298 () S195)
(declare-fun f299 (S196 S49) S71)
(declare-fun f300 () S196)
(declare-fun f301 (S197 S60) S67)
(declare-fun f302 () S197)
(declare-fun f303 (S198 S14) S65)
(declare-fun f304 () S198)
(declare-fun f305 (S199 S1) S34)
(declare-fun f306 () S199)
(declare-fun f307 (S200 S19) S5)
(declare-fun f308 (S201 S8) S200)
(declare-fun f309 () S201)
(declare-fun f310 (S202 S6) S7)
(declare-fun f311 () S202)
(declare-fun f312 (S203 S19) S60)
(declare-fun f313 (S204 S86) S203)
(declare-fun f314 () S204)
(declare-fun f315 (S205 S34) S60)
(declare-fun f316 (S206 S94) S205)
(declare-fun f317 () S206)
(declare-fun f318 (S207 S19) S49)
(declare-fun f319 (S208 S100) S207)
(declare-fun f320 () S208)
(declare-fun f321 (S209 S34) S49)
(declare-fun f322 (S210 S106) S209)
(declare-fun f323 () S210)
(declare-fun f324 (S211 S19) S4)
(declare-fun f325 (S212 S112) S211)
(declare-fun f326 () S212)
(declare-fun f327 (S213 S34) S4)
(declare-fun f328 (S214 S118) S213)
(declare-fun f329 () S214)
(declare-fun f330 (S215 S34) S5)
(declare-fun f331 (S216 S131) S215)
(declare-fun f332 () S216)
(declare-fun f333 (S217 S5) S6)
(declare-fun f334 () S217)
(assert (not (not (= f11 (f3 f88 (choice ((?v4 S2)) (not (or (not (= (f112 (f113 f114 f111) (f115 (f116 f117 (f267 (f268 f269 (f285 f286 f98)) f89)) f91)) (f154 (f155 f156 ?v4) (f285 f286 f98)))) (= (f3 (f40 f41 f11) ?v4) (f3 f88 ?v4))))))))))
(assert (not (not (and (not (= (f3 (f40 f41 f11) (choice ((?v4 S2)) (not (or (not (= (f112 (f113 f114 f111) (f115 (f116 f117 (f267 (f268 f269 (f285 f286 f98)) f89)) f91)) (f154 (f155 f156 ?v4) (f285 f286 f98)))) (= (f3 (f40 f41 f11) ?v4) (f3 f88 ?v4)))))) (f3 f88 (choice ((?v4 S2)) (not (or (not (= (f112 (f113 f114 f111) (f115 (f116 f117 (f267 (f268 f269 (f285 f286 f98)) f89)) f91)) (f154 (f155 f156 ?v4) (f285 f286 f98)))) (= (f3 (f40 f41 f11) ?v4) (f3 f88 ?v4)))))))) (= f11 (f3 (f40 f41 f11) (choice ((?v4 S2)) (not (or (not (= (f112 (f113 f114 f111) (f115 (f116 f117 (f267 (f268 f269 (f285 f286 f98)) f89)) f91)) (f154 (f155 f156 ?v4) (f285 f286 f98)))) (= (f3 (f40 f41 f11) ?v4) (f3 f88 ?v4)))))))))))
(assert (not (not (and (not (= (f3 (f40 f41 f11) (choice ((?v4 S2)) (not (or (not (= (f112 (f113 f114 f111) (f115 (f116 f117 (f267 (f268 f269 (f285 f286 f98)) f89)) f91)) (f154 (f155 f156 ?v4) (f285 f286 f98)))) (= (f3 (f40 f41 f11) ?v4) (f3 f88 ?v4)))))) (f3 f88 (choice ((?v4 S2)) (not (or (not (= (f112 (f113 f114 f111) (f115 (f116 f117 (f267 (f268 f269 (f285 f286 f98)) f89)) f91)) (f154 (f155 f156 ?v4) (f285 f286 f98)))) (= (f3 (f40 f41 f11) ?v4) (f3 f88 ?v4)))))))) (= f11 (f3 (f40 f41 f11) (choice ((?v4 S2)) (not (or (not (= (f112 (f113 f114 f111) (f115 (f116 f117 (f267 (f268 f269 (f285 f286 f98)) f89)) f91)) (f154 (f155 f156 ?v4) (f285 f286 f98)))) (= (f3 (f40 f41 f11) ?v4) (f3 f88 ?v4)))))))))))
(assert (or (not (not (= (f3 (f40 f41 f11) (choice ((?v4 S2)) (not (or (not (= (f112 (f113 f114 f111) (f115 (f116 f117 (f267 (f268 f269 (f285 f286 f98)) f89)) f91)) (f154 (f155 f156 ?v4) (f285 f286 f98)))) (= (f3 (f40 f41 f11) ?v4) (f3 f88 ?v4)))))) (f3 f88 (choice ((?v4 S2)) (not (or (not (= (f112 (f113 f114 f111) (f115 (f116 f117 (f267 (f268 f269 (f285 f286 f98)) f89)) f91)) (f154 (f155 f156 ?v4) (f285 f286 f98)))) (= (f3 (f40 f41 f11) ?v4) (f3 f88 ?v4))))))))) (not (= f11 (f3 (f40 f41 f11) (choice ((?v4 S2)) (not (or (not (= (f112 (f113 f114 f111) (f115 (f116 f117 (f267 (f268 f269 (f285 f286 f98)) f89)) f91)) (f154 (f155 f156 ?v4) (f285 f286 f98)))) (= (f3 (f40 f41 f11) ?v4) (f3 f88 ?v4)))))))) (not (= f11 (f3 f88 (choice ((?v4 S2)) (not (or (not (= (f112 (f113 f114 f111) (f115 (f116 f117 (f267 (f268 f269 (f285 f286 f98)) f89)) f91)) (f154 (f155 f156 ?v4) (f285 f286 f98)))) (= (f3 (f40 f41 f11) ?v4) (f3 f88 ?v4))))))))))
(assert (or (not (and (not (= (f3 (f40 f41 f11) (choice ((?v4 S2)) (not (or (not (= (f112 (f113 f114 f111) (f115 (f116 f117 (f267 (f268 f269 (f285 f286 f98)) f89)) f91)) (f154 (f155 f156 ?v4) (f285 f286 f98)))) (= (f3 (f40 f41 f11) ?v4) (f3 f88 ?v4)))))) (f3 f88 (choice ((?v4 S2)) (not (or (not (= (f112 (f113 f114 f111) (f115 (f116 f117 (f267 (f268 f269 (f285 f286 f98)) f89)) f91)) (f154 (f155 f156 ?v4) (f285 f286 f98)))) (= (f3 (f40 f41 f11) ?v4) (f3 f88 ?v4)))))))) (= f11 (f3 (f40 f41 f11) (choice ((?v4 S2)) (not (or (not (= (f112 (f113 f114 f111) (f115 (f116 f117 (f267 (f268 f269 (f285 f286 f98)) f89)) f91)) (f154 (f155 f156 ?v4) (f285 f286 f98)))) (= (f3 (f40 f41 f11) ?v4) (f3 f88 ?v4))))))))) (not (= (f3 (f40 f41 f11) (choice ((?v4 S2)) (not (or (not (= (f112 (f113 f114 f111) (f115 (f116 f117 (f267 (f268 f269 (f285 f286 f98)) f89)) f91)) (f154 (f155 f156 ?v4) (f285 f286 f98)))) (= (f3 (f40 f41 f11) ?v4) (f3 f88 ?v4)))))) (f3 f88 (choice ((?v4 S2)) (not (or (not (= (f112 (f113 f114 f111) (f115 (f116 f117 (f267 (f268 f269 (f285 f286 f98)) f89)) f91)) (f154 (f155 f156 ?v4) (f285 f286 f98)))) (= (f3 (f40 f41 f11) ?v4) (f3 f88 ?v4))))))))))
(assert (or (not (and (not (= (f3 (f40 f41 f11) (choice ((?v4 S2)) (not (or (not (= (f112 (f113 f114 f111) (f115 (f116 f117 (f267 (f268 f269 (f285 f286 f98)) f89)) f91)) (f154 (f155 f156 ?v4) (f285 f286 f98)))) (= (f3 (f40 f41 f11) ?v4) (f3 f88 ?v4)))))) (f3 f88 (choice ((?v4 S2)) (not (or (not (= (f112 (f113 f114 f111) (f115 (f116 f117 (f267 (f268 f269 (f285 f286 f98)) f89)) f91)) (f154 (f155 f156 ?v4) (f285 f286 f98)))) (= (f3 (f40 f41 f11) ?v4) (f3 f88 ?v4)))))))) (= f11 (f3 (f40 f41 f11) (choice ((?v4 S2)) (not (or (not (= (f112 (f113 f114 f111) (f115 (f116 f117 (f267 (f268 f269 (f285 f286 f98)) f89)) f91)) (f154 (f155 f156 ?v4) (f285 f286 f98)))) (= (f3 (f40 f41 f11) ?v4) (f3 f88 ?v4))))))))) (= f11 (f3 (f40 f41 f11) (choice ((?v4 S2)) (not (or (not (= (f112 (f113 f114 f111) (f115 (f116 f117 (f267 (f268 f269 (f285 f286 f98)) f89)) f91)) (f154 (f155 f156 ?v4) (f285 f286 f98)))) (= (f3 (f40 f41 f11) ?v4) (f3 f88 ?v4)))))))))
(check-sat)
(exit)
